15,7	0,0	10,9	5,6	0,0	0,0	0,0	0,0	0,0	12,1
11,9	11,5	0,0	20,0	11,5	0,0	0,0	15,0	0,0	0,0
0,0	0,0	13,0	0,0	15,1	19,0	0,0	0,0	8,5	0,0
15,6	0,0	17,9	0,0	0,0	0,0	15,3	0,0	0,0	0,0
0,0	12,6	0,0	11,6	15,1	0,0	0,0	13,9	0,0	0,0
0,0	18,0	17,0	0,0	11,2	16,5	0,0	0,0	9,3	0,0
0,0	11,9	0,0	12,2	0,0	0,0	12,8	0,0	0,0	19,6
6,6	0,0	19,7	0,0	0,0	0,0	0,0	0,0	0,0	17,7
0,0	12,7	0,0	6,8	5,3	0,0	0,0	19,9	0,0	0,0
0,0	0,0	7,7	0,0	0,0	9,6	8,7	0,0	0,0	19,2
									
3,7	3,0	2,8	3,7	2,9	4,9	3,6	4,7	4,7	2,7
